<number of tasks>
50

<cycle time>
1000

<order strength>
0.595


<task times>
1 90
2 96
3 31
4 139
5 153
6 84
7 64
8 35
9 104
10 153
11 23
12 110
13 214
14 71
15 126
16 39
17 170
18 256
19 221
20 85
21 51
22 164
23 145
24 137
25 135
26 54
27 92
28 83
29 45
30 288
31 75
32 83
33 224
34 256
35 194
36 231
37 304
38 154
39 49
40 158
41 182
42 85
43 109
44 182
45 168
46 71
47 168
48 85
49 433
50 86

<precedence relations>
1,5
2,4
2,6
2,7
3,11
4,8
5,11
6,9
7,10
7,12
8,15
9,14
10,13
10,16
10,17
11,16
11,17
11,35
12,16
12,31
13,18
14,19
15,20
16,21
17,20
17,22
18,23
19,24
20,24
20,25
20,26
20,27
21,25
21,26
22,24
22,26
22,27
23,28
24,33
24,36
25,29
25,33
25,36
26,30
26,44
27,31
27,32
27,33
28,35
29,34
31,36
31,37
32,36
32,37
33,40
34,38
35,39
35,40
36,39
37,39
37,40
38,44
39,41
39,43
39,44
39,45
40,42
40,45
41,46
42,47
43,48
45,49
45,50

<end>
